data/solutions/recovery/degenerate/intermediate/flexible/degenerate_intermediate_instance23/4.sol
Elapsed time: 100.1
Upper bound: 227328990.0
Planning weighted value: 9.57607828101e+11
C[0]=227328990.0
C[1]=227265601.0
C[2]=227250336.0
C[3]=226479105.0
C[4]=226452230.0
C[5]=226247219.0
C[6]=226167001.0
C[7]=225536096.0
C[8]=224886711.0
C[9]=223329586.0
C[10]=221463025.0
C[11]=0.0
y[0]=1
y[1]=9
y[2]=1
y[3]=7
y[4]=4
y[5]=3
y[6]=6
y[7]=1
y[8]=8
y[9]=5
y[10]=6
y[11]=6
y[12]=3
y[13]=10
y[14]=2
y[15]=2
y[16]=0
y[17]=7
y[18]=10
y[19]=10
y[20]=2
y[21]=7
y[22]=2
y[23]=2
y[24]=5
y[25]=0
y[26]=5
y[27]=8
y[28]=1
y[29]=8
y[30]=6
y[31]=4
y[32]=7
y[33]=7
y[34]=8
y[35]=0
y[36]=3
y[37]=4
y[38]=4
y[39]=3
y[40]=6
y[41]=2
y[42]=1
y[43]=9
y[44]=3
y[45]=5
y[46]=3
y[47]=1
y[48]=3
y[49]=7
y[50]=10
y[51]=10
y[52]=1
y[53]=0
y[54]=6
y[55]=3
y[56]=0
y[57]=0
y[58]=4
y[59]=7
y[60]=10
y[61]=8
y[62]=9
y[63]=8
y[64]=4
y[65]=3
y[66]=8
y[67]=9
y[68]=5
y[69]=4
y[70]=7
y[71]=0
y[72]=9
y[73]=2
y[74]=9
y[75]=5
y[76]=2
y[77]=9
