data/solutions/recovery/degenerate/intermediate/flexible/degenerate_intermediate_instance23/4.log

Log started (V12.6.3.0) Sat Apr 21 14:35:14 2018

New value for default parallel thread count: 1

Problem '/tmp/tmpsUF487.pyomo.lp' read.
Read time = 0.01 sec. (0.84 ticks)

Problem name         : /tmp/tmpsUF487.pyomo.lp
Objective sense      : Minimize
Variables            :     950  [Nneg: 1,  Binary: 936,  General Integer: 13]
Objective nonzeros   :       1
Linear constraints   :     182  [Less: 90,  Equal: 92]
  Nonzeros           :   60259
  RHS nonzeros       :     157

Variables            : Min LB: 0.000000         Max UB: 1.000000       
Objective nonzeros   : Min   : 1.000000         Max   : 1.000000       
Linear constraints   :
  Nonzeros           : Min   : 1.000000         Max   : 6.145599e+07   
  RHS nonzeros       : Min   : 1.000000         Max   : 8.000000       
Tried aggregator 2 times.
MIP Presolve eliminated 82 rows and 141 columns.
Aggregator did 5 substitutions.
Reduced MIP has 95 rows, 804 columns, and 2247 nonzeros.
Reduced MIP has 792 binaries, 12 generals, 0 SOSs, and 0 indicators.
Presolve time = 0.01 sec. (10.92 ticks)
Found incumbent of value 8.1518335e+08 after 0.01 sec. (12.45 ticks)
Probing time = 0.00 sec. (1.59 ticks)
Tried aggregator 1 time.
Reduced MIP has 95 rows, 804 columns, and 2247 nonzeros.
Reduced MIP has 792 binaries, 12 generals, 0 SOSs, and 0 indicators.
Presolve time = 0.00 sec. (1.15 ticks)
Probing time = 0.00 sec. (1.59 ticks)
Clique table members: 72.
MIP emphasis: balance optimality and feasibility.
MIP search method: dynamic search.
Parallel mode: none, using 1 thread.
Root relaxation solution time = 0.00 sec. (1.68 ticks)

        Nodes                                         Cuts/
   Node  Left     Objective  IInf  Best Integer    Best Bound    ItCnt     Gap

*     0+    0                       8.15183e+08        0.0000           100.00%
      0     0   2.25673e+08    29   8.15183e+08   2.25673e+08      143   72.32%
      0     0   2.25673e+08    23   8.15183e+08      Fract: 5      161   72.32%
      0     0   2.25673e+08    32   8.15183e+08      Fract: 5      182   72.32%
*     0+    0                       2.73016e+08   2.25673e+08            17.34%
*     0+    0                       2.58561e+08   2.25673e+08            12.72%
*     0+    0                       2.44703e+08   2.25673e+08             7.78%
      0     2   2.25673e+08    15   2.44703e+08   2.25673e+08      182    7.78%
Elapsed time = 0.05 sec. (62.46 ticks, tree = 0.01 MB, solutions = 4)
*    60+   54                       2.40451e+08   2.25673e+08             6.15%
*   140+  112                       2.39699e+08   2.25673e+08             5.85%
*   190+  161                       2.36132e+08   2.25673e+08             4.43%
*   290+  234                       2.35605e+08   2.25673e+08             4.22%
    811   497   2.29815e+08    21   2.35605e+08   2.25673e+08     6121    4.22%
    812   497   2.34152e+08     6   2.35605e+08   2.25673e+08     6138    4.22%
    813   497   2.34152e+08     7   2.35605e+08   2.25673e+08     6141    4.22%
    814   497   2.34152e+08     6   2.35605e+08   2.25673e+08     6147    4.22%
    815   497   2.34152e+08     7   2.35605e+08   2.25673e+08     6150    4.22%
    816   498   2.34152e+08     7   2.35605e+08   2.25673e+08     6155    4.22%
    817   499   2.34919e+08     5   2.35605e+08   2.25673e+08     6161    4.22%
    818   500   2.34919e+08     5   2.35605e+08   2.25673e+08     6162    4.22%
    819   501   2.34919e+08     5   2.35605e+08   2.25673e+08     6163    4.22%
*   996+  578                       2.35076e+08   2.25673e+08             4.00%
*   997+  496                       2.34919e+08   2.25673e+08             3.94%
*  1099+  361                       2.34668e+08   2.25673e+08             3.83%
*  1099+  264                       2.34530e+08   2.25673e+08             3.78%
*  1199+  130                       2.33436e+08   2.25673e+08             3.33%
*  1399+  132                       2.32279e+08   2.25673e+08             2.84%
*  1399+  131                       2.31657e+08   2.25673e+08             2.58%
   1499   155   2.25673e+08    16   2.31657e+08   2.25673e+08    10555    2.58%
Elapsed time = 0.91 sec. (1136.01 ticks, tree = 0.09 MB, solutions = 15)
*  1599+  159                       2.30301e+08   2.25673e+08             2.01%
   2931  1226   2.25830e+08    19   2.30301e+08   2.25673e+08    18032    2.01%
   2932  1227   2.25830e+08    20   2.30301e+08   2.25673e+08    18045    2.01%
   2933  1228   2.25830e+08    21   2.30301e+08   2.25673e+08    18051    2.01%
   2934  1229   2.25830e+08    22   2.30301e+08   2.25673e+08    18058    2.01%
   2935  1230   2.25830e+08    21   2.30301e+08   2.25673e+08    18061    2.01%
   2936  1231   2.25830e+08    21   2.30301e+08   2.25673e+08    18063    2.01%
   2937  1232   2.25830e+08    20   2.30301e+08   2.25673e+08    18064    2.01%
   2938  1233   2.25830e+08    20   2.30301e+08   2.25673e+08    18067    2.01%
   2939  1234   2.25830e+08    21   2.30301e+08   2.25673e+08    18068    2.01%
   2940  1235   2.25830e+08    20   2.30301e+08   2.25673e+08    18071    2.01%
Elapsed time = 1.72 sec. (2092.76 ticks, tree = 0.76 MB, solutions = 16)
   6693  4360        cutoff         2.30301e+08   2.25673e+08    34962    2.01%
   6694  4359        cutoff         2.30301e+08   2.25673e+08    35108    2.01%
   6695  4358        cutoff         2.30301e+08   2.25673e+08    35139    2.01%
   6696  4357        cutoff         2.30301e+08   2.25673e+08    35179    2.01%
   6697  4356        cutoff         2.30301e+08   2.25673e+08    35230    2.01%
   6698  4355        cutoff         2.30301e+08   2.25673e+08    35335    2.01%
   6699  4354    infeasible         2.30301e+08   2.25673e+08    35335    2.01%
   6700  4353        cutoff         2.30301e+08   2.25673e+08    35353    2.01%
   6701  4353   2.27611e+08    27   2.30301e+08   2.25673e+08    35531    2.01%
   6702  4353   2.28066e+08    29   2.30301e+08   2.25673e+08    35541    2.01%
Elapsed time = 2.46 sec. (3062.47 ticks, tree = 2.83 MB, solutions = 16)
   9480  6771   2.25673e+08    27   2.30301e+08   2.25673e+08    58364    2.01%
   9481  6772   2.25673e+08    30   2.30301e+08   2.25673e+08    58426    2.01%
   9482  6773   2.25673e+08    33   2.30301e+08   2.25673e+08    58445    2.01%
   9483  6774   2.25673e+08    30   2.30301e+08   2.25673e+08    58446    2.01%
   9484  6775   2.25673e+08    27   2.30301e+08   2.25673e+08    58448    2.01%
   9485  6776   2.25673e+08    27   2.30301e+08   2.25673e+08    58494    2.01%
   9486  6777   2.25673e+08    30   2.30301e+08   2.25673e+08    58506    2.01%
   9487  6778   2.25673e+08    30   2.30301e+08   2.25673e+08    58522    2.01%
   9488  6779   2.25673e+08    29   2.30301e+08   2.25673e+08    58523    2.01%
   9489  6780   2.25686e+08    40   2.30301e+08   2.25673e+08    58536    2.01%
Elapsed time = 3.19 sec. (4020.06 ticks, tree = 4.29 MB, solutions = 16)
* 10959+ 8085                       2.30163e+08   2.25673e+08             1.95%
  11347  8400   2.29000e+08    21   2.30163e+08   2.25673e+08    75103    1.95%
  11348  8399        cutoff         2.30163e+08   2.25673e+08    75106    1.95%
  11349  8398        cutoff         2.30163e+08   2.25673e+08    75115    1.95%
  11350  8399   2.25673e+08    20   2.30163e+08   2.25673e+08    75219    1.95%
  11351  8400   2.25673e+08    20   2.30163e+08   2.25673e+08    75245    1.95%
  11352  8401   2.25673e+08    20   2.30163e+08   2.25673e+08    75248    1.95%
  11353  8402   2.25673e+08    21   2.30163e+08   2.25673e+08    75268    1.95%
  11354  8403   2.25673e+08    21   2.30163e+08   2.25673e+08    75270    1.95%
  11355  8404   2.25673e+08    26   2.30163e+08   2.25673e+08    75302    1.95%
  11356  8405   2.25690e+08    49   2.30163e+08   2.25673e+08    75376    1.95%
Elapsed time = 4.04 sec. (4987.65 ticks, tree = 5.55 MB, solutions = 17)
  13524 10211   2.25673e+08    32   2.30163e+08   2.25673e+08   101798    1.95%
  13525 10212   2.25673e+08    33   2.30163e+08   2.25673e+08   101800    1.95%
  13526 10213   2.25677e+08    40   2.30163e+08   2.25673e+08   101814    1.95%
  13527 10213   2.29473e+08    30   2.30163e+08   2.25673e+08   101871    1.95%
  13528 10213   2.29958e+08    26   2.30163e+08   2.25673e+08   102009    1.95%
  13529 10214   2.25677e+08    41   2.30163e+08   2.25673e+08   102013    1.95%
  13530 10214   2.27141e+08    25   2.30163e+08   2.25673e+08   102064    1.95%
  13531 10214   2.27336e+08    26   2.30163e+08   2.25673e+08   102081    1.95%
  13532 10215   2.27336e+08    29   2.30163e+08   2.25673e+08   102090    1.95%
  13533 10216   2.27336e+08    28   2.30163e+08   2.25673e+08   102097    1.95%
Elapsed time = 4.77 sec. (5950.46 ticks, tree = 6.70 MB, solutions = 17)
  15996 12203   2.26256e+08    42   2.30163e+08   2.25673e+08   129775    1.95%
  15997 12204   2.26256e+08    42   2.30163e+08   2.25673e+08   129781    1.95%
  15998 12205   2.26257e+08    42   2.30163e+08   2.25673e+08   129782    1.95%
  15999 12206   2.26257e+08    42   2.30163e+08   2.25673e+08   129784    1.95%
  16000 12207   2.26257e+08    41   2.30163e+08   2.25673e+08   129790    1.95%
  16001 12208   2.26263e+08    40   2.30163e+08   2.25673e+08   129791    1.95%
  16002 12209   2.26263e+08    40   2.30163e+08   2.25673e+08   129794    1.95%
  16003 12210   2.26271e+08    40   2.30163e+08   2.25673e+08   129795    1.95%
  16004 12211   2.26271e+08    40   2.30163e+08   2.25673e+08   129798    1.95%
  16005 12212   2.26271e+08    40   2.30163e+08   2.25673e+08   129801    1.95%
Elapsed time = 5.50 sec. (6905.68 ticks, tree = 8.02 MB, solutions = 17)
  17415 13153   2.36845e+08    35   2.30163e+08   2.25673e+08   156710    1.95%
  17416 13153   2.26364e+08    32   2.30163e+08   2.25673e+08   156815    1.95%
  17417 13154   2.26364e+08    32   2.30163e+08   2.25673e+08   156827    1.95%
  17418 13155   2.26364e+08    32   2.30163e+08   2.25673e+08   156835    1.95%
  17419 13154        cutoff         2.30163e+08   2.25673e+08   156840    1.95%
  17420 13155   2.26364e+08    32   2.30163e+08   2.25673e+08   156849    1.95%
  17421 13156   2.26364e+08    32   2.30163e+08   2.25673e+08   156854    1.95%
  17422 13157   2.26593e+08    22   2.30163e+08   2.25673e+08   156895    1.95%
  17423 13156        cutoff         2.30163e+08   2.25673e+08   156897    1.95%
  17424 13157   2.28328e+08     8   2.30163e+08   2.25673e+08   157025    1.95%
Elapsed time = 6.23 sec. (7869.31 ticks, tree = 8.64 MB, solutions = 17)
* 18266 13421      integral     0   2.29000e+08   2.25673e+08   166912    1.45%
  19339 14273   2.25673e+08    37   2.29000e+08   2.25673e+08   182843    1.45%
  19340 14274   2.25673e+08    31   2.29000e+08   2.25673e+08   182847    1.45%
  19341 14275   2.25673e+08    31   2.29000e+08   2.25673e+08   182849    1.45%
  19342 14276   2.25673e+08    33   2.29000e+08   2.25673e+08   182871    1.45%
  19343 14277   2.25673e+08    28   2.29000e+08   2.25673e+08   182895    1.45%
  19344 14278   2.25673e+08    29   2.29000e+08   2.25673e+08   182896    1.45%
  19345 14279   2.25673e+08    29   2.29000e+08   2.25673e+08   182899    1.45%
  19346 14280   2.25673e+08    29   2.29000e+08   2.25673e+08   182900    1.45%
  19347 14281   2.25673e+08    29   2.29000e+08   2.25673e+08   182901    1.45%
  19348 14282   2.25673e+08    29   2.29000e+08   2.25673e+08   182902    1.45%
Elapsed time = 6.94 sec. (8829.55 ticks, tree = 9.37 MB, solutions = 18)
  21057 15526   2.25673e+08    26   2.29000e+08   2.25673e+08   205980    1.45%
  21058 15527   2.25673e+08    25   2.29000e+08   2.25673e+08   206038    1.45%
  21059 15528   2.25673e+08    27   2.29000e+08   2.25673e+08   206084    1.45%
  21060 15529   2.25673e+08    29   2.29000e+08   2.25673e+08   206114    1.45%
  21061 15530   2.25673e+08    27   2.29000e+08   2.25673e+08   206115    1.45%
  21062 15531   2.25673e+08    28   2.29000e+08   2.25673e+08   206116    1.45%
  21063 15532   2.25673e+08    26   2.29000e+08   2.25673e+08   206127    1.45%
  21064 15533   2.25673e+08    24   2.29000e+08   2.25673e+08   206130    1.45%
  21065 15534   2.25673e+08    23   2.29000e+08   2.25673e+08   206134    1.45%
  26537 20105   2.26479e+08    19   2.29000e+08   2.25673e+08   279975    1.45%
Elapsed time = 9.69 sec. (12644.50 ticks, tree = 13.71 MB, solutions = 18)
  32357 24683   2.25673e+08    39   2.29000e+08   2.25673e+08   371160    1.45%
  32358 24684   2.25673e+08    29   2.29000e+08   2.25673e+08   371241    1.45%
  32359 24685   2.25693e+08    43   2.29000e+08   2.25673e+08   371334    1.45%
  32360 24686   2.25693e+08    40   2.29000e+08   2.25673e+08   371362    1.45%
  32361 24687   2.25693e+08    38   2.29000e+08   2.25673e+08   371372    1.45%
  32362 24688   2.25693e+08    39   2.29000e+08   2.25673e+08   371403    1.45%
  32363 24689   2.25791e+08    39   2.29000e+08   2.25673e+08   371411    1.45%
  32364 24690   2.25799e+08    37   2.29000e+08   2.25673e+08   371419    1.45%
  32365 24691   2.26211e+08    35   2.29000e+08   2.25673e+08   371501    1.45%
  32366 24692   2.26211e+08    36   2.29000e+08   2.25673e+08   371542    1.45%
Elapsed time = 12.43 sec. (16469.54 ticks, tree = 16.76 MB, solutions = 18)
  37858 29338   2.25909e+08    36   2.29000e+08   2.25673e+08   450918    1.45%
  37859 29339   2.25910e+08    50   2.29000e+08   2.25673e+08   450925    1.45%
  37860 29340   2.25913e+08    51   2.29000e+08   2.25673e+08   450927    1.45%
  37861 29341   2.25913e+08    48   2.29000e+08   2.25673e+08   450929    1.45%
  37862 29342   2.25914e+08    36   2.29000e+08   2.25673e+08   450930    1.45%
  37863 29343   2.25920e+08    47   2.29000e+08   2.25673e+08   450932    1.45%
  37864 29344   2.25923e+08    48   2.29000e+08   2.25673e+08   450934    1.45%
  37865 29345   2.25924e+08    42   2.29000e+08   2.25673e+08   450936    1.45%
  37866 29346   2.25924e+08    41   2.29000e+08   2.25673e+08   450937    1.45%
  37867 29347   2.25953e+08    36   2.29000e+08   2.25673e+08   450967    1.45%
Elapsed time = 15.51 sec. (20289.07 ticks, tree = 19.87 MB, solutions = 18)
  43059 33281   2.25673e+08    19   2.29000e+08   2.25673e+08   529335    1.45%
  43060 33282   2.25673e+08    19   2.29000e+08   2.25673e+08   529336    1.45%
  43061 33283   2.25673e+08    19   2.29000e+08   2.25673e+08   529348    1.45%
  43062 33284   2.25673e+08    22   2.29000e+08   2.25673e+08   529378    1.45%
  43063 33285   2.25673e+08    20   2.29000e+08   2.25673e+08   529391    1.45%
  43064 33286   2.25673e+08    21   2.29000e+08   2.25673e+08   529407    1.45%
  43065 33287   2.25673e+08    21   2.29000e+08   2.25673e+08   529408    1.45%
  43066 33288   2.25673e+08    23   2.29000e+08   2.25673e+08   529410    1.45%
  43067 33289   2.25673e+08    23   2.29000e+08   2.25673e+08   529411    1.45%
  43068 33290   2.25673e+08    21   2.29000e+08   2.25673e+08   529412    1.45%
Elapsed time = 18.96 sec. (24106.68 ticks, tree = 23.48 MB, solutions = 18)
  47636 36042   2.26188e+08    37   2.29000e+08   2.25673e+08   615155    1.45%
  47637 36041        cutoff         2.29000e+08   2.25673e+08   615160    1.45%
  47638 36040        cutoff         2.29000e+08   2.25673e+08   615164    1.45%
  47639 36040   2.26461e+08    30   2.29000e+08   2.25673e+08   615233    1.45%
  47640 36039        cutoff         2.29000e+08   2.25673e+08   615235    1.45%
  47641 36040   2.25673e+08    21   2.29000e+08   2.25673e+08   615285    1.45%
  47642 36039        cutoff         2.29000e+08   2.25673e+08   615367    1.45%
  47643 36040   2.25673e+08    20   2.29000e+08   2.25673e+08   615385    1.45%
  47644 36040   2.28962e+08    33   2.29000e+08   2.25673e+08   615483    1.45%
  47645 36040   2.25838e+08    33   2.29000e+08   2.25673e+08   615523    1.45%
Elapsed time = 22.49 sec. (27941.06 ticks, tree = 25.40 MB, solutions = 18)
* 48499+33854                       2.28499e+08   2.25673e+08             1.24%
  51799 35665   2.25673e+08    25   2.28499e+08   2.25673e+08   699879    1.24%
  51800 35666   2.25673e+08    23   2.28499e+08   2.25673e+08   699880    1.24%
  51801 35667   2.25673e+08    22   2.28499e+08   2.25673e+08   699886    1.24%
  51802 35668   2.25673e+08    23   2.28499e+08   2.25673e+08   699916    1.24%
  51803 35669   2.25673e+08    22   2.28499e+08   2.25673e+08   699918    1.24%
  51804 35670   2.25673e+08    26   2.28499e+08   2.25673e+08   699938    1.24%
  51805 35671   2.25673e+08    25   2.28499e+08   2.25673e+08   699939    1.24%
  51806 35672   2.25673e+08    24   2.28499e+08   2.25673e+08   699943    1.24%
  51807 35673   2.25673e+08    24   2.28499e+08   2.25673e+08   699954    1.24%
  51808 35674   2.25673e+08    24   2.28499e+08   2.25673e+08   699955    1.24%
Elapsed time = 26.01 sec. (31791.72 ticks, tree = 25.12 MB, solutions = 19)
  57637 39483   2.27024e+08    25   2.28499e+08   2.25673e+08   778720    1.24%
  57638 39482    infeasible         2.28499e+08   2.25673e+08   778720    1.24%
  57639 39483   2.27024e+08    25   2.28499e+08   2.25673e+08   778721    1.24%
  57640 39484   2.27024e+08    23   2.28499e+08   2.25673e+08   778723    1.24%
  57641 39483   2.27024e+08    23   2.28499e+08   2.25673e+08   778725    1.24%
  57642 39482    infeasible         2.28499e+08   2.25673e+08   778725    1.24%
  57643 39481    infeasible         2.28499e+08   2.25673e+08   778725    1.24%
  57644 39480        cutoff         2.28499e+08   2.25673e+08   778754    1.24%
  57645 39481   2.27252e+08    26   2.28499e+08   2.25673e+08   778859    1.24%
  57646 39482   2.27252e+08    26   2.28499e+08   2.25673e+08   778861    1.24%
Elapsed time = 29.39 sec. (35611.49 ticks, tree = 27.78 MB, solutions = 19)
* 61999+42172                       2.28497e+08   2.25673e+08             1.24%
* 62099+40914                       2.28161e+08   2.25673e+08             1.09%
* 62999+40903                       2.27823e+08   2.25673e+08             0.94%
* 62999+40587                       2.27744e+08   2.25673e+08             0.91%
  63016 40600   2.25673e+08    18   2.27744e+08   2.25673e+08   854716    0.91%
  63017 40601   2.25673e+08    19   2.27744e+08   2.25673e+08   854731    0.91%
  63018 40602   2.25673e+08    19   2.27744e+08   2.25673e+08   854736    0.91%
  63019 40603   2.25673e+08    22   2.27744e+08   2.25673e+08   854774    0.91%
  63020 40604   2.25673e+08    25   2.27744e+08   2.25673e+08   854881    0.91%
  63021 40605   2.25673e+08    24   2.27744e+08   2.25673e+08   854892    0.91%
  63022 40606   2.25673e+08    17   2.27744e+08   2.25673e+08   854910    0.91%
  63023 40607   2.25673e+08    23   2.27744e+08   2.25673e+08   854960    0.91%
  63024 40608   2.25673e+08    20   2.27744e+08   2.25673e+08   854964    0.91%
  63025 40609   2.25815e+08    36   2.27744e+08   2.25673e+08   855023    0.91%
Elapsed time = 33.56 sec. (39434.85 ticks, tree = 28.47 MB, solutions = 23)
* 63099+40253                       2.27588e+08   2.25673e+08             0.84%
  67295 43077   2.27274e+08    33   2.27588e+08   2.25673e+08   934968    0.84%
  67296 43076    infeasible         2.27588e+08   2.25673e+08   934968    0.84%
  67297 43077   2.26277e+08    38   2.27588e+08   2.25673e+08   935048    0.84%
  67298 43076        cutoff         2.27588e+08   2.25673e+08   935074    0.84%
  67299 43075        cutoff         2.27588e+08   2.25673e+08   935128    0.84%
  67300 43076   2.25673e+08    32   2.27588e+08   2.25673e+08   935228    0.84%
  67301 43077   2.25673e+08    30   2.27588e+08   2.25673e+08   935229    0.84%
  67302 43078   2.25673e+08    30   2.27588e+08   2.25673e+08   935230    0.84%
  67303 43079   2.25673e+08    33   2.27588e+08   2.25673e+08   935236    0.84%
  67304 43080   2.25673e+08    30   2.27588e+08   2.25673e+08   935244    0.84%
Elapsed time = 37.11 sec. (43262.21 ticks, tree = 30.08 MB, solutions = 24)
  72054 46611   2.26639e+08    32   2.27588e+08   2.25673e+08  1018541    0.84%
  72055 46610        cutoff         2.27588e+08   2.25673e+08  1018546    0.84%
  72056 46611   2.25673e+08    29   2.27588e+08   2.25673e+08  1018607    0.84%
  72057 46612   2.25673e+08    29   2.27588e+08   2.25673e+08  1018633    0.84%
  72058 46613   2.25673e+08    28   2.27588e+08   2.25673e+08  1018635    0.84%
  72059 46614   2.25673e+08    21   2.27588e+08   2.25673e+08  1018656    0.84%
  72060 46615   2.25673e+08    24   2.27588e+08   2.25673e+08  1018670    0.84%
  72061 46616   2.25673e+08    27   2.27588e+08   2.25673e+08  1018690    0.84%
  72062 46617   2.25673e+08    27   2.27588e+08   2.25673e+08  1018714    0.84%
  72063 46618   2.25673e+08    27   2.27588e+08   2.25673e+08  1018727    0.84%
Elapsed time = 40.65 sec. (47087.52 ticks, tree = 32.42 MB, solutions = 24)
  76411 49537   2.25673e+08    29   2.27588e+08   2.25673e+08  1100483    0.84%
  76412 49538   2.25673e+08    31   2.27588e+08   2.25673e+08  1100505    0.84%
  76413 49539   2.25673e+08    31   2.27588e+08   2.25673e+08  1100512    0.84%
  76414 49540   2.25673e+08    31   2.27588e+08   2.25673e+08  1100515    0.84%
  76415 49541   2.25673e+08    31   2.27588e+08   2.25673e+08  1100538    0.84%
  76416 49542   2.25673e+08    32   2.27588e+08   2.25673e+08  1100540    0.84%
  76417 49543   2.25673e+08    31   2.27588e+08   2.25673e+08  1100545    0.84%
  76418 49544   2.25673e+08    30   2.27588e+08   2.25673e+08  1100548    0.84%
  76419 49545   2.25673e+08    30   2.27588e+08   2.25673e+08  1100553    0.84%
  76420 49546   2.25673e+08    27   2.27588e+08   2.25673e+08  1100555    0.84%
Elapsed time = 44.21 sec. (50908.79 ticks, tree = 34.41 MB, solutions = 24)
  80777 52531   2.27320e+08    27   2.27588e+08   2.25673e+08  1179590    0.84%
  80778 52530        cutoff         2.27588e+08   2.25673e+08  1179671    0.84%
  80779 52529        cutoff         2.27588e+08   2.25673e+08  1179688    0.84%
  80780 52528        cutoff         2.27588e+08   2.25673e+08  1179695    0.84%
  80781 52529   2.25673e+08    21   2.27588e+08   2.25673e+08  1179753    0.84%
  80782 52530   2.25673e+08    21   2.27588e+08   2.25673e+08  1179754    0.84%
  80783 52531   2.25673e+08    19   2.27588e+08   2.25673e+08  1179762    0.84%
  80784 52532   2.25673e+08    21   2.27588e+08   2.25673e+08  1179767    0.84%
  80785 52533   2.25673e+08    26   2.27588e+08   2.25673e+08  1179834    0.84%
  80786 52534   2.26042e+08    38   2.27588e+08   2.25673e+08  1179958    0.84%
Elapsed time = 47.72 sec. (54738.21 ticks, tree = 36.40 MB, solutions = 24)
  85413 55462   2.26385e+08    34   2.27588e+08   2.25673e+08  1262390    0.84%
  85414 55461        cutoff         2.27588e+08   2.25673e+08  1262404    0.84%
  85415 55460    infeasible         2.27588e+08   2.25673e+08  1262404    0.84%
  85416 55461   2.25673e+08    21   2.27588e+08   2.25673e+08  1262420    0.84%
  85417 55462   2.25673e+08    25   2.27588e+08   2.25673e+08  1262453    0.84%
  85418 55463   2.25673e+08    24   2.27588e+08   2.25673e+08  1262477    0.84%
  85419 55464   2.25673e+08    25   2.27588e+08   2.25673e+08  1262489    0.84%
  85420 55465   2.25673e+08    25   2.27588e+08   2.25673e+08  1262502    0.84%
  85421 55466   2.25673e+08    25   2.27588e+08   2.25673e+08  1262503    0.84%
  85422 55465        cutoff         2.27588e+08   2.25673e+08  1262530    0.84%
Elapsed time = 51.24 sec. (58561.96 ticks, tree = 38.38 MB, solutions = 24)
  89579 57804   2.26327e+08    34   2.27588e+08   2.25673e+08  1341951    0.84%
  89580 57804   2.26685e+08    37   2.27588e+08   2.25673e+08  1341981    0.84%
  89581 57805   2.26685e+08    35   2.27588e+08   2.25673e+08  1341982    0.84%
  89582 57806   2.26772e+08    37   2.27588e+08   2.25673e+08  1341991    0.84%
  89583 57807   2.26851e+08    34   2.27588e+08   2.25673e+08  1341995    0.84%
  89584 57808   2.26858e+08    37   2.27588e+08   2.25673e+08  1341998    0.84%
  89585 57809   2.26861e+08    35   2.27588e+08   2.25673e+08  1342003    0.84%
  89586 57810   2.26884e+08    33   2.27588e+08   2.25673e+08  1342008    0.84%
  89587 57811   2.26898e+08    36   2.27588e+08   2.25673e+08  1342012    0.84%
  89588 57812   2.26901e+08    35   2.27588e+08   2.25673e+08  1342015    0.84%
Elapsed time = 54.81 sec. (62381.89 ticks, tree = 39.97 MB, solutions = 24)
  93601 60430        cutoff         2.27588e+08   2.25673e+08  1421785    0.84%
  93602 60429        cutoff         2.27588e+08   2.25673e+08  1421797    0.84%
  93603 60430   2.25673e+08    19   2.27588e+08   2.25673e+08  1421803    0.84%
  93604 60431   2.25673e+08    19   2.27588e+08   2.25673e+08  1421819    0.84%
  93605 60432   2.25673e+08    19   2.27588e+08   2.25673e+08  1421825    0.84%
  93606 60433   2.25673e+08    18   2.27588e+08   2.25673e+08  1421833    0.84%
  93607 60434   2.25673e+08    21   2.27588e+08   2.25673e+08  1421845    0.84%
  93608 60435   2.25673e+08    21   2.27588e+08   2.25673e+08  1421856    0.84%
  93609 60436   2.25673e+08    20   2.27588e+08   2.25673e+08  1421860    0.84%
  93610 60437   2.25673e+08    19   2.27588e+08   2.25673e+08  1421864    0.84%
Elapsed time = 58.31 sec. (66203.46 ticks, tree = 41.73 MB, solutions = 24)
  99750 63712        cutoff         2.27588e+08   2.25673e+08  1504690    0.84%
  99751 63711        cutoff         2.27588e+08   2.25673e+08  1504724    0.84%
  99752 63712   2.25673e+08    18   2.27588e+08   2.25673e+08  1504760    0.84%
  99753 63713   2.25673e+08    19   2.27588e+08   2.25673e+08  1504808    0.84%
  99754 63714   2.25673e+08    23   2.27588e+08   2.25673e+08  1504813    0.84%
  99755 63715   2.25673e+08    24   2.27588e+08   2.25673e+08  1504828    0.84%
  99756 63716   2.25707e+08    33   2.27588e+08   2.25673e+08  1504871    0.84%
  99757 63717   2.26078e+08    33   2.27588e+08   2.25673e+08  1504885    0.84%
  99758 63717   2.26996e+08    24   2.27588e+08   2.25673e+08  1504921    0.84%
  99759 63716        cutoff         2.27588e+08   2.25673e+08  1504923    0.84%
Elapsed time = 61.77 sec. (70029.63 ticks, tree = 44.07 MB, solutions = 24)
 104469 66445   2.25673e+08    21   2.27588e+08   2.25673e+08  1582396    0.84%
 104470 66446   2.26627e+08    28   2.27588e+08   2.25673e+08  1582434    0.84%
 104471 66447   2.26627e+08    28   2.27588e+08   2.25673e+08  1582443    0.84%
 104472 66448   2.26627e+08    28   2.27588e+08   2.25673e+08  1582448    0.84%
 104473 66449   2.26686e+08    29   2.27588e+08   2.25673e+08  1582453    0.84%
 104474 66450   2.26689e+08    29   2.27588e+08   2.25673e+08  1582460    0.84%
 104475 66451   2.26772e+08    29   2.27588e+08   2.25673e+08  1582477    0.84%
 104476 66452   2.26781e+08    29   2.27588e+08   2.25673e+08  1582478    0.84%
 104477 66453   2.26781e+08    29   2.27588e+08   2.25673e+08  1582482    0.84%
 104478 66454   2.26781e+08    29   2.27588e+08   2.25673e+08  1582487    0.84%
Elapsed time = 65.26 sec. (73849.75 ticks, tree = 47.86 MB, solutions = 24)
 109211 69505        cutoff         2.27588e+08   2.25673e+08  1666329    0.84%
 109212 69504        cutoff         2.27588e+08   2.25673e+08  1666332    0.84%
 109213 69503        cutoff         2.27588e+08   2.25673e+08  1666355    0.84%
 109214 69504   2.25673e+08    17   2.27588e+08   2.25673e+08  1666370    0.84%
 109215 69505   2.25673e+08    17   2.27588e+08   2.25673e+08  1666371    0.84%
 109216 69506   2.25673e+08    19   2.27588e+08   2.25673e+08  1666393    0.84%
 109217 69507   2.25673e+08    17   2.27588e+08   2.25673e+08  1666399    0.84%
 109218 69508   2.25673e+08    19   2.27588e+08   2.25673e+08  1666424    0.84%
 109219 69509   2.25673e+08    19   2.27588e+08   2.25673e+08  1666428    0.84%
 109220 69510   2.25673e+08    27   2.27588e+08   2.25673e+08  1666459    0.84%
Elapsed time = 68.76 sec. (77669.89 ticks, tree = 49.96 MB, solutions = 24)
 116199 74243   2.26273e+08    27   2.27588e+08   2.25673e+08  1749248    0.84%
 116200 74244   2.26273e+08    27   2.27588e+08   2.25673e+08  1749265    0.84%
 116201 74245   2.26273e+08    27   2.27588e+08   2.25673e+08  1749280    0.84%
 116202 74246   2.26273e+08    27   2.27588e+08   2.25673e+08  1749286    0.84%
 116203 74247   2.26273e+08    27   2.27588e+08   2.25673e+08  1749294    0.84%
 116204 74248   2.26273e+08    29   2.27588e+08   2.25673e+08  1749305    0.84%
 116205 74249   2.26273e+08    29   2.27588e+08   2.25673e+08  1749310    0.84%
 116206 74250   2.26273e+08    29   2.27588e+08   2.25673e+08  1749313    0.84%
 116207 74251   2.26273e+08    26   2.27588e+08   2.25673e+08  1749315    0.84%
 116208 74252   2.26273e+08    28   2.27588e+08   2.25673e+08  1749321    0.84%
Elapsed time = 72.05 sec. (81488.44 ticks, tree = 53.35 MB, solutions = 24)
 123599 78966   2.26108e+08    32   2.27588e+08   2.25673e+08  1836015    0.84%
 123600 78967   2.26108e+08    33   2.27588e+08   2.25673e+08  1836016    0.84%
 123601 78968   2.26112e+08    33   2.27588e+08   2.25673e+08  1836017    0.84%
 123602 78969   2.26182e+08    32   2.27588e+08   2.25673e+08  1836027    0.84%
 123603 78970   2.26182e+08    32   2.27588e+08   2.25673e+08  1836028    0.84%
 123604 78971   2.26355e+08    32   2.27588e+08   2.25673e+08  1836038    0.84%
 123605 78970   2.27529e+08    27   2.27588e+08   2.25673e+08  1836042    0.84%
 123606 78969        cutoff         2.27588e+08   2.25673e+08  1836044    0.84%
 123607 78970   2.26452e+08    26   2.27588e+08   2.25673e+08  1836138    0.84%
 123608 78971   2.26452e+08    25   2.27588e+08   2.25673e+08  1836183    0.84%
Elapsed time = 75.39 sec. (85309.30 ticks, tree = 56.73 MB, solutions = 24)
 130299 82766   2.26189e+08    30   2.27588e+08   2.25673e+08  1927924    0.84%
 130300 82767   2.26189e+08    32   2.27588e+08   2.25673e+08  1927926    0.84%
 130301 82768   2.26192e+08    33   2.27588e+08   2.25673e+08  1927929    0.84%
 130302 82769   2.26193e+08    30   2.27588e+08   2.25673e+08  1927930    0.84%
 130303 82770   2.26193e+08    31   2.27588e+08   2.25673e+08  1927932    0.84%
 130304 82771   2.26193e+08    31   2.27588e+08   2.25673e+08  1927933    0.84%
 130305 82772   2.26193e+08    33   2.27588e+08   2.25673e+08  1927958    0.84%
 130306 82773   2.26657e+08    26   2.27588e+08   2.25673e+08  1927974    0.84%
 130307 82774   2.26657e+08    27   2.27588e+08   2.25673e+08  1927982    0.84%
 130308 82775   2.26657e+08    26   2.27588e+08   2.25673e+08  1927985    0.84%
Elapsed time = 78.77 sec. (89166.20 ticks, tree = 59.45 MB, solutions = 24)
 137371 86725   2.25735e+08    32   2.27588e+08   2.25673e+08  2016641    0.84%
 137372 86726   2.25744e+08    31   2.27588e+08   2.25673e+08  2016645    0.84%
 137373 86727   2.25744e+08    29   2.27588e+08   2.25673e+08  2016651    0.84%
 137374 86728   2.25786e+08    29   2.27588e+08   2.25673e+08  2016657    0.84%
 137375 86729   2.25791e+08    29   2.27588e+08   2.25673e+08  2016660    0.84%
 137376 86730   2.25792e+08    29   2.27588e+08   2.25673e+08  2016662    0.84%
 137377 86731   2.25792e+08    29   2.27588e+08   2.25673e+08  2016665    0.84%
 137378 86732   2.25792e+08    29   2.27588e+08   2.25673e+08  2016679    0.84%
 137379 86733   2.25792e+08    30   2.27588e+08   2.25673e+08  2016684    0.84%
 137380 86734   2.25792e+08    32   2.27588e+08   2.25673e+08  2016685    0.84%
Elapsed time = 82.10 sec. (92984.12 ticks, tree = 62.32 MB, solutions = 24)
 143771 90605   2.26161e+08    25   2.27588e+08   2.25673e+08  2098377    0.84%
 143772 90606   2.26161e+08    27   2.27588e+08   2.25673e+08  2098379    0.84%
 143773 90607   2.26161e+08    30   2.27588e+08   2.25673e+08  2098390    0.84%
 143774 90608   2.26161e+08    27   2.27588e+08   2.25673e+08  2098394    0.84%
 143775 90607        cutoff         2.27588e+08   2.25673e+08  2098410    0.84%
 143776 90608   2.26161e+08    28   2.27588e+08   2.25673e+08  2098437    0.84%
 143777 90609   2.26161e+08    29   2.27588e+08   2.25673e+08  2098447    0.84%
 143778 90610   2.26161e+08    29   2.27588e+08   2.25673e+08  2098454    0.84%
 143779 90611   2.26161e+08    26   2.27588e+08   2.25673e+08  2098472    0.84%
 143780 90612   2.26161e+08    27   2.27588e+08   2.25673e+08  2098485    0.84%
Elapsed time = 85.47 sec. (96803.22 ticks, tree = 65.14 MB, solutions = 24)
*145999+90707                       2.27404e+08   2.25673e+08             0.76%
*145999+89935                       2.27329e+08   2.25673e+08             0.73%
 149526 91647   2.25673e+08    17   2.27329e+08   2.25673e+08  2180991    0.73%
 149527 91648   2.25673e+08    16   2.27329e+08   2.25673e+08  2181005    0.73%
 149528 91649   2.25673e+08    19   2.27329e+08   2.25673e+08  2181025    0.73%
 149529 91650   2.25673e+08    17   2.27329e+08   2.25673e+08  2181026    0.73%
 149530 91651   2.25673e+08    19   2.27329e+08   2.25673e+08  2181052    0.73%
 149531 91652   2.25673e+08    19   2.27329e+08   2.25673e+08  2181053    0.73%
 149532 91653   2.25760e+08    31   2.27329e+08   2.25673e+08  2181075    0.73%
 149533 91653   2.25760e+08    31   2.27329e+08   2.25673e+08  2181080    0.73%
 149534 91652        cutoff         2.27329e+08   2.25673e+08  2181083    0.73%
 149535 91653   2.25673e+08    32   2.27329e+08   2.25673e+08  2181116    0.73%
Elapsed time = 88.85 sec. (100623.92 ticks, tree = 65.96 MB, solutions = 26)
 153299 93561   2.26618e+08    27   2.27329e+08   2.25673e+08  2238688    0.73%
 153300 93560        cutoff         2.27329e+08   2.25673e+08  2238689    0.73%
 153301 93559        cutoff         2.27329e+08   2.25673e+08  2238696    0.73%
 153302 93558        cutoff         2.27329e+08   2.25673e+08  2238700    0.73%
 153303 93557    infeasible         2.27329e+08   2.25673e+08  2238700    0.73%
 153304 93556        cutoff         2.27329e+08   2.25673e+08  2238717    0.73%
 153305 93555        cutoff         2.27329e+08   2.25673e+08  2238747    0.73%
 153306 93554        cutoff         2.27329e+08   2.25673e+08  2238761    0.73%
 153307 93553        cutoff         2.27329e+08   2.25673e+08  2238795    0.73%
 153308 93554   2.25673e+08    17   2.27329e+08   2.25673e+08  2238806    0.73%
Elapsed time = 92.27 sec. (104575.44 ticks, tree = 67.38 MB, solutions = 26)
 158064 96108   2.26161e+08    33   2.27329e+08   2.25673e+08  2315554    0.73%
 158065 96107        cutoff         2.27329e+08   2.25673e+08  2315558    0.73%
 158066 96106        cutoff         2.27329e+08   2.25673e+08  2315564    0.73%
 158067 96105    infeasible         2.27329e+08   2.25673e+08  2315637    0.73%
 158068 96104    infeasible         2.27329e+08   2.25673e+08  2315637    0.73%
 158069 96105   2.25673e+08    22   2.27329e+08   2.25673e+08  2315694    0.73%
 158070 96106   2.25673e+08    21   2.27329e+08   2.25673e+08  2315706    0.73%
 158071 96107   2.25673e+08    19   2.27329e+08   2.25673e+08  2315719    0.73%
 158072 96108   2.25673e+08    21   2.27329e+08   2.25673e+08  2315735    0.73%
 158073 96109   2.25673e+08    18   2.27329e+08   2.25673e+08  2315740    0.73%
Elapsed time = 95.74 sec. (108399.91 ticks, tree = 69.29 MB, solutions = 26)
 163075 98140   2.25673e+08    19   2.27329e+08   2.25673e+08  2395937    0.73%
 163076 98139        cutoff         2.27329e+08   2.25673e+08  2395956    0.73%
 163077 98140   2.25673e+08    19   2.27329e+08   2.25673e+08  2395999    0.73%
 163078 98141   2.25673e+08    21   2.27329e+08   2.25673e+08  2396016    0.73%
 163079 98142   2.25673e+08    20   2.27329e+08   2.25673e+08  2396030    0.73%
 163080 98141        cutoff         2.27329e+08   2.25673e+08  2396033    0.73%
 163081 98140        cutoff         2.27329e+08   2.25673e+08  2396036    0.73%
 163082 98139    infeasible         2.27329e+08   2.25673e+08  2396036    0.73%
 163083 98138        cutoff         2.27329e+08   2.25673e+08  2396075    0.73%
 163084 98137        cutoff         2.27329e+08   2.25673e+08  2396118    0.73%
Elapsed time = 99.15 sec. (112219.73 ticks, tree = 70.84 MB, solutions = 26)

Cover cuts applied:  461
Mixed integer rounding cuts applied:  9
Gomory fractional cuts applied:  5

Root node processing (before b&c):
  Real time             =    0.05 sec. (62.62 ticks)
Sequential b&c:
  Real time             =   99.95 sec. (113104.67 ticks)
                          ------------
Total (root+branch&cut) =  100.00 sec. (113167.29 ticks)

Solution pool: 26 solutions saved.

MIP - Time limit exceeded, integer feasible:  Objective =  2.2732899000e+08
Current MIP best bound =  2.2567326400e+08 (gap = 1.65573e+06, 0.73%)
Solution time =  100.00 sec.  Iterations = 2417419  Nodes = 164488 (98828)
Deterministic time = 113167.29 ticks  (1131.67 ticks/sec)


Incumbent solution written to file '/tmp/tmp1hzUXA.cplex.sol'.
